NAME : XML100_2235_23
DIMENSION : 101
NB_CLUSTERS : 3
CLUSTERING_ALG : KMedoids
CLUSTERING_PARAMS : k(2)
CLUSTERS
1 0
2 2 4 5 6 9 11 12 16 20 24 25 27 28 29 30 31 32 33 35 36 41 42 43 46 47 48 49 50 54 58 61 62 64 65 66 69 70 73 74 75 78 82 85 86 89 92 94 95 96 98 100
3 1 3 7 8 10 13 14 15 17 18 19 21 22 23 26 34 37 38 39 40 44 45 51 52 53 55 56 57 59 60 63 67 68 71 72 76 77 79 80 81 83 84 87 88 90 91 93 97 99
EOF